<number of tasks>
50

<cycle time>
1000

<order strength>
0.202


<task times>
1 465
2 415
3 444
4 357
5 607
6 284
7 510
8 496
9 439
10 572
11 552
12 358
13 626
14 610
15 445
16 450
17 382
18 497
19 589
20 392
21 482
22 464
23 377
24 414
25 743
26 549
27 645
28 308
29 571
30 463
31 408
32 634
33 752
34 353
35 539
36 505
37 475
38 754
39 439
40 528
41 527
42 541
43 668
44 646
45 492
46 426
47 440
48 386
49 631
50 358

<precedence relations>
1,12
2,12
3,12
4,12
5,7
5,8
5,9
5,11
6,10
7,12
8,12
9,13
9,14
10,17
10,18
11,15
11,16
11,19
12,20
12,21
12,22
12,23
13,24
14,25
14,26
18,27
20,31
20,34
21,33
24,29
25,30
26,28
27,32
28,35
29,37
30,36
31,38
32,39
33,40
33,44
35,41
36,43
37,42
38,43
39,44
39,45
41,47
42,46
43,49
45,48
45,50

<end>
